9 16
1 2 0
1 3 0
1 4 0
1 5 0
1 6 1
1 7 0
1 8 1
1 9 0
2 3 0
2 4 1
2 5 1
2 6 0
2 7 1
2 8 1
2 9 1
3 4 0
3 5 0
3 6 0
3 7 0
3 8 1
3 9 1
4 5 0
4 6 0
4 7 1
4 8 0
4 9 1
5 6 1
5 7 1
5 8 0
5 9 1
6 7 1
6 8 0
6 9 0
7 8 0
7 9 1
8 9 0
